10J3M/DAT/10J3MUNL-5.dat
10 3
46.2611 46.2611
24.6448 24.6448
9.227 9.227
17.7968 17.7968
20.0401 20.0401
45.2966 45.2966
18.1552 18.1552
46.8489 46.8489
43.8333 43.8333
39.1732 39.1732
311.277